
Gurobi 9.0.1 (linux64, C++) logging started Wed Mar 18 01:33:38 2020

Academic license - for non-commercial use only
Gurobi Optimizer version 9.0.1 build v9.0.1rc0 (linux64)
Optimize a model with 13 rows, 21 columns and 31 nonzeros
Model fingerprint: 0xae2f44be
Variable types: 0 continuous, 21 integer (7 binary)
Coefficient statistics:
  Matrix range     [1e+00, 1e+01]
  Objective range  [1e+00, 4e+01]
  Bounds range     [1e+00, 1e+00]
  RHS range        [3e+00, 8e+00]
Found heuristic solution: objective 278.0000000
Presolve removed 6 rows and 10 columns
Presolve time: 0.05s
Presolved: 7 rows, 11 columns, 17 nonzeros
Variable types: 0 continuous, 11 integer (4 binary)

Root relaxation: objective 2.042000e+02, 7 iterations, 0.02 seconds

    Nodes    |    Current Node    |     Objective Bounds      |     Work
 Expl Unexpl |  Obj  Depth IntInf | Incumbent    BestBd   Gap | It/Node Time

     0     0  204.20000    0    1  278.00000  204.20000  26.5%     -    0s
H    0     0                     216.0000000  204.20000  5.46%     -    0s
H    0     0                     212.0000000  204.20000  3.68%     -    0s
     0     0     cutoff    0       212.00000  212.00000  0.00%     -    0s

Cutting planes:
  Gomory: 1

Explored 1 nodes (7 simplex iterations) in 0.17 seconds
Thread count was 4 (of 4 available processors)

Solution count 3: 212 216 278 

Optimal solution found (tolerance 1.00e-04)
Best objective 2.120000000000e+02, best bound 2.120000000000e+02, gap 0.0000%

Gurobi 9.0.1 (linux64, C++) logging started Wed Mar 18 01:38:32 2020

Academic license - for non-commercial use only
Gurobi Optimizer version 9.0.1 build v9.0.1rc0 (linux64)
Optimize a model with 13 rows, 21 columns and 31 nonzeros
Model fingerprint: 0x12c41621
Variable types: 0 continuous, 21 integer (7 binary)
Coefficient statistics:
  Matrix range     [1e+00, 1e+01]
  Objective range  [1e+00, 4e+01]
  Bounds range     [1e+00, 1e+00]
  RHS range        [3e+00, 8e+00]
Found heuristic solution: objective -278.0000000
Presolve removed 13 rows and 21 columns
Presolve time: 0.00s
Presolve: All rows and columns removed

Explored 0 nodes (0 simplex iterations) in 0.00 seconds
Thread count was 1 (of 4 available processors)

Solution count 2: -465 
No other solutions better than -465

Optimal solution found (tolerance 1.00e-04)
Best objective -4.650000000000e+02, best bound -4.650000000000e+02, gap 0.0000%

Gurobi 9.0.1 (linux64, C++) logging started Wed Mar 18 01:39:04 2020

Academic license - for non-commercial use only
Gurobi Optimizer version 9.0.1 build v9.0.1rc0 (linux64)
Optimize a model with 13 rows, 21 columns and 31 nonzeros
Model fingerprint: 0x5a0b502c
Variable types: 0 continuous, 21 integer (7 binary)
Coefficient statistics:
  Matrix range     [1e+00, 1e+05]
  Objective range  [1e+00, 4e+01]
  Bounds range     [1e+00, 1e+00]
  RHS range        [3e+00, 8e+00]
Found heuristic solution: objective -278.0000000
Presolve removed 13 rows and 21 columns
Presolve time: 0.00s
Presolve: All rows and columns removed

Explored 0 nodes (0 simplex iterations) in 0.00 seconds
Thread count was 1 (of 4 available processors)

Solution count 2: -4.40002e+06 
No other solutions better than -4.40002e+06

Optimal solution found (tolerance 1.00e-04)
Best objective -4.400025000000e+06, best bound -4.400025000000e+06, gap 0.0000%
